1	90
1 84	75 75	80 16	56 79	22 69	50 44	33 99	71 8	32 21	64 71	8 38	19 32	13 19	74 15	7 62	47 88	18 18	6 60	52 26	11 54	60 99	70 8	29 80	78 36	5 31	88 52	38 78	57 72	35 2	14 81	12 13	43 94	23 16	68 70	10 20	84 2	3 84	36 21	66 12	45 30	39 11	72 80	63 61	67 95	15 76	82 70	37 43	61 73	17 53	4 2	54 7	27 57	59 68	34 37	51 72	73 14	40 61	81 4	58 41	65 13	28 69	83 86	0 75	42 71	44 38	62 57	77 37	24 54	16 57	21 59	20 91	46 71	86 2	2 63	9 51	69 53	48 63	49 87	85 52	26 14	53 23	25 56	79 76	41 33	55 74	89 80	87 35	30 25	76 34	31 87
